NAME : P = NP
TYPE : TSP
DIMENSION : 13
EDGE_WEIGHT_TYPE : EUC_2D
NODE_COORD_SECTION
0 326 637
1 111 13
2 875 24
3 6 84
4 10 292
5 280 169
6 136 289
7 138 289
8 708 63
9 198 250
10 412 408
11 734 418
12 122 198